p ds 20 5
1 2
1 3
1 9
1 13
1 16
1 19
2 3
2 5
2 9
2 10
2 11
2 12
2 13
2 14
2 15
2 16
2 17
2 20
3 6
3 7
3 9
3 14
3 17
3 19
3 20
4 7
4 8
4 9
4 13
4 16
4 17
5 7
5 9
5 11
5 13
5 14
5 15
5 17
5 18
5 20
6 7
6 9
6 10
6 11
6 13
6 14
6 15
6 17
7 8
7 9
7 10
7 15
7 16
7 18
7 19
7 20
8 9
8 10
8 13
8 14
8 16
8 20
9 10
9 12
9 15
9 18
9 19
9 20
10 11
10 12
10 13
10 15
10 17
10 18
11 14
11 18
11 20
12 13
12 15
12 16
12 18
12 19
12 20
13 16
13 18
13 19
13 20
14 16
14 17
14 18
14 19
15 19
15 20
16 17
16 18
17 20
18 19
18 20
19 20
